
Gurobi 6.5.2 (win64) logging started 07/24/16 17:43:48


Gurobi 6.5.2 (win64) logging started 07/24/16 17:43:48

Optimize a model with 3301 rows, 770 columns and 8454 nonzeros
Coefficient statistics:
  Matrix range    [6e-08, 5e+02]
  Objective range [1e+00, 1e+00]
  Bounds range    [1e+00, 1e+00]
  RHS range       [6e-06, 2e+03]
Presolve removed 2609 rows and 86 columns
Presolve time: 0.02s
Presolved: 692 rows, 684 columns, 3340 nonzeros
Variable types: 285 continuous, 399 integer (399 binary)

Root relaxation: objective 1.875411e+01, 1543 iterations, 0.05 seconds

    Nodes    |    Current Node    |     Objective Bounds      |     Work
 Expl Unexpl |  Obj  Depth IntInf | Incumbent    BestBd   Gap | It/Node Time

     0     0   18.75411    0  112          -   18.75411      -     -    0s
     0     0   20.05391    0  113          -   20.05391      -     -    0s
H    0     0                      20.4916287   20.05391  2.14%     -    0s
     0     0   20.05410    0  105   20.49163   20.05410  2.14%     -    0s
     0     0   20.05410    0   83   20.49163   20.05410  2.14%     -    0s
     0     0   20.05591    0   97   20.49163   20.05591  2.13%     -    0s
     0     0   20.06555    0   96   20.49163   20.06555  2.08%     -    0s
     0     0   20.07905    0   97   20.49163   20.07905  2.01%     -    0s
     0     0   20.07905    0   97   20.49163   20.07905  2.01%     -    0s
     0     0   20.08347    0   97   20.49163   20.08347  1.99%     -    0s
     0     0   20.08347    0   97   20.49163   20.08347  1.99%     -    0s
     0     0   20.08347    0   90   20.49163   20.08347  1.99%     -    0s
     0     0   20.08347    0   90   20.49163   20.08347  1.99%     -    0s
H    0     0                      20.4892264   20.08347  1.98%     -    0s
     0     0   20.08347    0   89   20.48923   20.08347  1.98%     -    0s
     0     0   20.08347    0   91   20.48923   20.08347  1.98%     -    0s
     0     0   20.08347    0   90   20.48923   20.08347  1.98%     -    0s
     0     2   20.08347    0   90   20.48923   20.08347  1.98%     -    0s
*   64    26              27      20.4669018   20.18137  1.40%   8.5    0s
*  220   148              22      20.4622687   20.19765  1.29%   8.4    0s
*  225   144              22      20.4415641   20.19765  1.19%   8.3    0s
*  490   221              23      20.4278581   20.22825  0.98%   7.9    0s
* 1949   405              23      20.4262030   20.27268  0.75%   7.8    0s
H 2428   409                      20.4219126   20.28394  0.68%   7.7    0s

Cutting planes:
  Gomory: 4
  MIR: 24

Explored 4500 nodes (33835 simplex iterations) in 1.08 seconds
Thread count was 8 (of 8 available processors)

Optimal solution found (tolerance 1.00e-04)
Best objective 2.042191258433e+01, best bound 2.042191258433e+01, gap 0.0%

Wrote requested result file 'H1\instance24\\Results24E_Sol6.lp'

